param set_len = 26;
param target_sum = 6916260744;
param values := [1] 749546883 [2] 666288105 [3] 410579988 [4] 91484950 [5] 358641059 [6] 422541633 [7] 739230635 [8] 939542209 [9] 1001744495 [10] 583334310 [11] 599967262 [12] 293049787 [13] 925084580 [14] 168246219 [15] 843216918 [16] 886015641 [17] 47394549 [18] 244392957 [19] 777130798 [20] 647167154 [21] 577426009 [22] 475265758 [23] 670523195 [24] 33683462 [25] 174970434 [26] 570067772 ;
